Route #1: 0 1 55 23 53 20 41 0
Route #2: 0 52 54 18 57 57 35 31 17 0
Route #3: 0 7 11 45 22 43 34 51 0
Route #4: 0 13 56 19 38 44 63 46 26 0
Route #5: 0 6 24 12 49 9 0
Route #6: 0 30 37 48 62 10 2 47 0
Route #7: 0 50 28 16 25 64 59 61 0
Route #8: 0 36 21 14 39 29 3 15 60 4 8 65 33 0
Route #9: 0 42 27 5 40 58 32 0
Cost 1383:
